c uprop, v00.0, 
c reading from data/prog870.c.cnf
c done reading: 0.003767
p cnf 152 610
-67 -88 0
-67 -83 0
67 83 88 0
-61 83 88 0
-61 -83 -88 0
61 83 -88 0
61 -83 88 0
67 -78 0
-76 -78 0
-67 76 78 0
-67 -71 76 0
67 -71 -76 0
67 71 76 0
-67 71 -76 0
-68 78 0
-65 -68 0
65 68 -78 0
-63 65 -78 0
-63 -65 78 0
63 65 78 0
63 -65 -78 0
-62 68 0
-59 -62 0
59 62 -68 0
59 -68 -85 0
-59 68 -85 0
59 68 85 0
-59 -68 85 0
62 -90 0
-80 -90 0
-62 80 90 0
-62 80 -92 0
62 -80 -92 0
62 80 92 0
-62 -80 92 0
90 -94 0
-73 -94 0
73 -90 94 0
73 -90 -96 0
-73 90 -96 0
73 90 96 0
-73 -90 96 0
94 -97 0
-70 -97 0
70 -94 97 0
70 -94 -99 0
-70 94 -99 0
70 94 99 0
-70 -94 99 0
76 -100 0
88 -100 0
-76 -88 100 0
-76 -88 -101 0
76 88 -101 0
-76 88 101 0
76 -88 101 0
-65 -83 102 0
-65 -100 102 0
-83 -100 102 0
65 83 -102 0
65 100 -102 0
83 100 -102 0
65 -102 -103 0
83 -102 -103 0
100 -102 -103 0
-65 102 103 0
-83 102 103 0
-100 102 103 0
-65 -83 -100 103 0
65 83 100 -103 0
-59 -76 104 0
-59 -102 104 0
-76 -102 104 0
59 76 -104 0
59 102 -104 0
76 102 -104 0
59 -104 -105 0
76 -104 -105 0
102 -104 -105 0
-59 104 105 0
-76 104 105 0
-102 104 105 0
-59 -76 -102 105 0
59 76 102 -105 0
-65 -80 106 0
-80 -104 106 0
-65 -104 106 0
65 80 -106 0
80 104 -106 0
65 104 -106 0
-57 80 -106 0
-57 65 -106 0
-57 104 -106 0
57 -80 106 0
57 -65 106 0
57 -104 106 0
57 -65 -80 -104 0
-57 65 80 104 0
56 -59 -73 0
56 -73 -106 0
56 -59 -106 0
-56 59 73 0
-56 73 106 0
-56 59 106 0
-54 -56 73 0
-54 -56 59 0
-54 -56 106 0
54 56 -73 0
54 56 -59 0
54 56 -106 0
54 -59 -73 -106 0
-54 59 73 106 0
52 -70 -80 0
52 -56 -70 0
52 -56 -80 0
-52 70 80 0
-52 56 70 0
-52 56 80 0
-51 -52 70 0
-51 -52 80 0
-51 -52 56 0
51 52 -70 0
51 52 -80 0
51 52 -56 0
51 -56 -70 -80 0
-51 56 70 80 0
-49 73 0
-49 52 0
49 -52 -73 0
-52 -73 -87 0
52 73 -87 0
52 -73 87 0
-52 73 87 0
70 -82 0
49 -82 0
-49 -70 82 0
-49 -70 -75 0
49 70 -75 0
49 -70 75 0
-49 70 75 0
-64 103 0
-64 88 0
64 -88 -103 0
-58 -88 -103 0
-58 88 103 0
58 88 -103 0
58 -88 103 0
79 -83 -105 0
-64 79 -105 0
-64 79 -83 0
-79 83 105 0
64 -79 105 0
64 -79 83 0
-72 -79 105 0
-72 -79 83 0
64 -72 -79 0
72 79 -105 0
72 79 -83 0
-64 72 79 0
-64 72 -83 -105 0
64 -72 83 105 0
-57 69 -76 0
-57 69 -79 0
69 -76 -79 0
57 -69 76 0
57 -69 79 0
-69 76 79 0
-48 57 -69 0
-48 -69 76 0
-48 -69 79 0
48 -57 69 0
48 69 -76 0
48 69 -79 0
48 -57 -76 -79 0
-48 57 76 79 0
47 -54 -65 0
47 -54 -69 0
47 -65 -69 0
-47 54 65 0
-47 54 69 0
-47 65 69 0
-46 -47 54 0
-46 -47 65 0
-46 -47 69 0
46 47 -54 0
46 47 -65 0
46 47 -69 0
46 -54 -65 -69 0
-46 54 65 69 0
45 -51 -59 0
45 -47 -51 0
45 -47 -59 0
-45 51 59 0
-45 47 51 0
-45 47 59 0
-43 -45 51 0
-43 -45 59 0
-43 -45 47 0
43 45 -51 0
43 45 -59 0
43 45 -47 0
43 -47 -51 -59 0
-43 47 51 59 0
41 -80 -87 0
41 -45 -87 0
41 -45 -80 0
-41 80 87 0
-41 45 87 0
-41 45 80 0
-39 -41 87 0
-39 -41 80 0
-39 -41 45 0
39 41 -87 0
39 41 -80 0
39 41 -45 0
39 -45 -80 -87 0
-39 45 80 87 0
37 -73 -75 0
37 -41 -75 0
37 -41 -73 0
-37 73 75 0
-37 41 75 0
-37 41 73 0
-35 -37 75 0
-35 -37 73 0
-35 -37 41 0
35 37 -75 0
35 37 -73 0
35 37 -41 0
35 -41 -73 -75 0
-35 41 73 75 0
33 -70 -82 0
33 -37 -82 0
33 -37 -70 0
-33 70 82 0
-33 37 82 0
-33 37 70 0
-31 -33 82 0
-31 -33 70 0
-31 -33 37 0
31 33 -82 0
31 33 -70 0
31 33 -37 0
31 -37 -70 -82 0
-31 37 70 82 0
-30 48 0
-30 88 0
30 -48 -88 0
-29 -48 -88 0
-29 48 88 0
29 -48 88 0
29 48 -88 0
28 -46 -83 0
28 -30 -46 0
28 -30 -83 0
-28 46 83 0
-28 30 46 0
-28 30 83 0
-27 -28 46 0
-27 -28 83 0
-27 -28 30 0
27 28 -46 0
27 28 -83 0
27 28 -30 0
27 -30 -46 -83 0
-27 30 46 83 0
26 -43 -76 0
26 -28 -43 0
26 -28 -76 0
-26 43 76 0
-26 28 43 0
-26 28 76 0
26 -43 0
26 -76 0
26 -28 0
-28 -43 -76 0
-39 -65 107 0
-26 -39 107 0
-26 -65 107 0
39 65 -107 0
26 39 -107 0
26 65 -107 0
-39 107 0
-65 107 0
-26 107 0
-26 -39 -65 0
-35 -59 108 0
-35 -107 108 0
-59 -107 108 0
35 59 -108 0
35 107 -108 0
59 107 -108 0
-35 108 0
-59 108 0
-107 108 0
-35 -59 -107 0
-31 -80 109 0
-31 -108 109 0
-80 -108 109 0
31 80 -109 0
31 108 -109 0
80 108 -109 0
-31 109 0
-80 109 0
-108 109 0
-31 -80 -108 0
-33 -73 110 0
-33 -109 110 0
-73 -109 110 0
33 73 -110 0
33 109 -110 0
73 109 -110 0
-33 110 0
-73 110 0
-109 110 0
-33 -73 -109 0
-70 -110 0
-70 110 0
70 -110 0
-88 -111 0
-83 -111 0
83 88 111 0
83 88 -112 0
-83 -88 -112 0
83 -88 112 0
-83 88 112 0
111 -113 0
-101 -113 0
101 -111 113 0
101 -111 -114 0
-101 111 -114 0
101 111 114 0
-101 -111 114 0
113 -115 0
-58 -115 0
58 -113 115 0
58 -113 -116 0
-58 113 -116 0
58 113 116 0
-58 -113 116 0
115 -117 0
-72 -117 0
72 -115 117 0
72 -115 -118 0
-72 115 -118 0
72 115 118 0
-72 -115 118 0
117 -119 0
-29 -119 0
29 -117 119 0
29 -117 -120 0
-29 117 -120 0
29 117 120 0
-29 -117 120 0
119 -121 0
-27 -121 0
27 -119 121 0
27 -119 -122 0
-27 119 -122 0
27 119 122 0
-27 -119 122 0
121 -123 0
-121 123 0
-121 -124 0
121 124 0
123 -125 0
-123 125 0
-123 -126 0
123 126 0
125 -127 0
-125 127 0
-125 -128 0
125 128 0
127 -129 0
-127 129 0
-127 -130 0
127 130 0
129 -131 0
-129 131 0
-129 -132 0
129 132 0
131 -133 0
-131 133 0
-131 -134 0
131 134 0
133 -135 0
-133 135 0
-133 -136 0
133 136 0
-137 -139 0
-139 -140 0
137 139 140 0
137 140 -141 0
-137 -140 -141 0
-137 140 141 0
137 -140 141 0
139 -142 0
-139 142 0
-139 -143 0
139 143 0
142 -144 0
-142 144 0
-142 -145 0
142 145 0
144 -146 0
-144 146 0
-89 -144 0
89 144 0
-84 146 0
84 -146 0
-77 -146 0
77 146 0
-66 84 0
66 -84 0
-60 -84 0
60 84 0
66 -81 0
-66 81 0
-66 -74 0
66 74 0
137 -138 0
-137 138 0
-140 147 0
140 -147 0
147 -148 0
137 -148 0
-137 -147 148 0
-137 -147 -149 0
137 147 -149 0
137 -147 149 0
-137 147 149 0
-140 -148 150 0
140 -150 0
148 -150 0
140 148 -150 0
-150 -151 0
140 -150 -151 0
148 -150 -151 0
-140 150 151 0
-148 150 151 0
140 148 -151 0
-150 152 0
150 -152 0
-86 151 0
-86 137 0
86 -137 -151 0
-91 -137 -151 0
-91 137 151 0
91 137 -151 0
91 -137 151 0
93 -140 -152 0
-86 93 -152 0
-86 93 -140 0
-93 140 152 0
86 -93 152 0
86 -93 140 0
-93 -95 152 0
-93 -95 140 0
86 -93 -95 0
93 95 -152 0
93 95 -140 0
-86 93 95 0
-86 95 -140 -152 0
86 -95 140 152 0
-93 98 0
93 -98 0
-55 95 0
-55 137 0
55 -95 -137 0
-53 -95 -137 0
-53 95 137 0
53 -95 137 0
53 95 -137 0
-98 -140 0
-55 -98 0
-55 -140 0
50 -98 0
50 -140 0
50 -55 0
50 -55 -98 -140 0
-50 55 98 140 0
-44 -137 0
-44 -140 0
44 137 140 0
-42 137 140 0
-42 -137 -140 0
42 -137 140 0
42 137 -140 0
-40 44 0
-40 -138 0
40 -44 138 0
-38 -44 138 0
-38 44 -138 0
38 44 138 0
38 -44 -138 0
-36 40 0
-36 -149 0
36 -40 149 0
-34 -40 149 0
-34 40 -149 0
34 40 149 0
34 -40 -149 0
-32 36 0
-32 -91 0
32 -36 91 0
-25 -36 91 0
-25 36 -91 0
25 36 91 0
25 -36 -91 0
-24 32 0
-24 -53 0
24 -32 53 0
-23 -32 53 0
-23 32 -53 0
23 32 53 0
23 -32 -53 0
-22 24 0
-22 -50 0
22 -24 50 0
-21 -24 50 0
-21 24 -50 0
21 24 50 0
21 -24 -50 0
-20 22 0
20 -22 0
-19 -22 0
19 22 0
-18 20 0
18 -20 0
-17 -20 0
17 20 0
-16 18 0
16 -18 0
-15 -18 0
15 18 0
-14 16 0
14 -16 0
-13 -16 0
13 16 0
-12 14 0
12 -14 0
-11 -14 0
11 14 0
-10 12 0
10 -12 0
-9 -12 0
9 12 0
-8 10 0
8 -10 0
-7 -10 0
7 10 0
-6 88 0
-6 137 0
6 -88 -137 0
-88 -137 0
88 137 0
5 -83 -140 0
5 -6 -83 0
5 -6 -140 0
-5 83 140 0
-5 6 83 0
-5 6 140 0
-5 83 0
-5 140 0
-5 6 0
6 83 140 0
4 -101 -138 0
4 -5 -101 0
4 -5 -138 0
-4 101 138 0
-4 5 101 0
-4 5 138 0
4 -101 0
4 -138 0
4 -5 0
-5 -101 -138 0
3 -58 -149 0
3 -4 -58 0
3 -4 -149 0
-3 58 149 0
-3 4 58 0
-3 4 149 0
3 -58 0
3 -149 0
3 -4 0
-4 -58 -149 0
2 -72 -91 0
2 -3 -72 0
2 -3 -91 0
-2 72 91 0
-2 3 72 0
-2 3 91 0
-2 72 0
-2 91 0
-2 3 0
3 72 91 0
1 -29 -53 0
1 -2 -29 0
1 -2 -53 0
-1 29 53 0
-1 2 29 0
-1 2 53 0
1 -29 0
1 -53 0
1 -2 0
-2 -29 -53 0
-27 -50 0
-1 -27 0
-1 -50 0
1 27 50 0
